NAME : berlin52-R-5-3-c.8224.tour
COMMENT : Length = 8224
COMMENT : Found by LKH-3 [Keld Helsgaun] Tue Jul 30 13:14:23 2024
TYPE : TOUR
DIMENSION : 52
TOUR_SECTION
1
49
18
3
17
21
42
7
2
30
29
34
35
39
40
38
15
6
4
25
12
28
27
26
47
13
14
52
11
51
33
43
10
9
8
41
19
45
32
36
37
5
24
48
46
44
16
50
20
23
31
22
-1
EOF
